benchmarks/VRPTW/TSPTW/solution/n80w100.002.txt.solution
1 40 8 70 36 33 47 45 57 48 41 51 49 77 61 52 39 26 59 71 78 67 14 35 38 42 4 43 68 32 19 5 12 3 31 60 54 66 50 80 46 9 27 79 15 53 29 7 11 58 75 72 63 23 10 28 16 55 44 73 6 34 76 13 25 2 17 20 64 21 62 22 65 74 69 30 56 18 24 81 37 
567
